Maximize
obj: x05 + x16 + x24 + x36 + x41 + x50 + x65 + x77 + x85 + x92 + x106 + x07 + x15 + x20 + x35 + x46 + x57 + x67 + x70 + x87 + x96 + x104 + x06 + x10 + x27 + x37 + x47 + x54 + x66 + x74 + x86 + x95 + x100 + x08 + x14 + x22 + x30 + x45 + x52 + x62 + x72 + x82 + x98 + x108 + x03 + x17 + x28 + x38 + x40 + x58 + x68 + x78 + x88 + x93 + x103
Subject To
c1: x05 + x07 + x06 + x08 + x03 <= 1
c2: x16 + x15 + x10 + x14 + x17 <= 1
c3: x24 + x20 + x27 + x22 + x28 <= 1
c4: x36 + x35 + x37 + x30 + x38 <= 1
c5: x41 + x46 + x47 + x45 + x40 <= 1
c6: x50 + x57 + x54 + x52 + x58 <= 1
c7: x65 + x67 + x66 + x62 + x68 <= 1
c8: x77 + x70 + x74 + x72 + x78 <= 1
c9: x85 + x87 + x86 + x82 + x88 <= 1
c10: x92 + x96 + x95 + x98 + x93 <= 1
c11: x106 + x104 + x100 + x108 + x103 <= 1
c12: x50 + x20 + x70 + x10 + x100 + x30 + x40 <= 2
c13: x41 <= 1
c14: x92 + x22 + x52 + x62 + x72 + x82 <= 1
c15: x03 + x93 + x103 <= 1
c16: x24 + x104 + x54 + x74 + x14 <= 1
c17: x05 + x65 + x85 + x15 + x35 + x95 + x45 <= 1
c18: x16 + x36 + x106 + x46 + x96 + x06 + x66 + x86 <= 1
c19: x77 + x07 + x57 + x67 + x87 + x27 + x37 + x47 + x17 <= 1
c20: x08 + x98 + x108 + x28 + x38 + x58 + x68 + x78 + x88 <= 2
Binary 
x05 x16 x24 x36 x41 x50 x65 x77 x85 x92 x106 x07 x15 x20 x35 x46 x57 x67 x70 x87 x96 x104 x06 x10 x27 x37 x47 x54 x66 x74 x86 x95 x100 x08 x14 x22 x30 x45 x52 x62 x72 x82 x98 x108 x03 x17 x28 x38 x40 x58 x68 x78 x88 x93 x103 
End